logs/miss/max/miss-06-15-1.lp
\ LP format - for model browsing. Use MPS format to capture full model detail.
Maximize
  x0,1_4 + x0,1_5 + x0,1_14 + x0,1_19 + x0,1_25 + x0,1_26 + x0,1_30
   + x0,1_31 + x0,1_43 + x0,2_4 + x0,2_5 + x0,2_14 + x0,2_19 + x0,2_25
   + x0,2_26 + x0,2_30 + x0,2_31 + x0,2_43 + x0,3_4 + x0,3_5 + x0,3_14
   + x0,3_19 + x0,3_25 + x0,3_26 + x0,3_30 + x0,3_31 + x0,3_43 + x0,4_4
   + x0,4_5 + x0,4_14 + x0,4_19 + x0,4_25 + x0,4_26 + x0,4_30 + x0,4_31
   + x0,4_43 + x0,5_4 + x0,5_5 + x0,5_14 + x0,5_19 + x0,5_25 + x0,5_26
   + x0,5_30 + x0,5_31 + x0,5_43 + x1,2_4 + x1,2_5 + x1,2_14 + x1,2_19
   + x1,2_25 + x1,2_26 + x1,2_30 + x1,2_31 + x1,2_43 + x1,3_4 + x1,3_5
   + x1,3_14 + x1,3_19 + x1,3_25 + x1,3_26 + x1,3_30 + x1,3_31 + x1,3_43
   + x1,4_4 + x1,4_5 + x1,4_14 + x1,4_19 + x1,4_25 + x1,4_26 + x1,4_30
   + x1,4_31 + x1,4_43 + x1,5_4 + x1,5_5 + x1,5_14 + x1,5_19 + x1,5_25
   + x1,5_26 + x1,5_30 + x1,5_31 + x1,5_43 + x2,3_4 + x2,3_5 + x2,3_14
   + x2,3_19 + x2,3_25 + x2,3_26 + x2,3_30 + x2,3_31 + x2,3_43 + x2,4_4
   + x2,4_5 + x2,4_14 + x2,4_19 + x2,4_25 + x2,4_26 + x2,4_30 + x2,4_31
   + x2,4_43 + x2,5_4 + x2,5_5 + x2,5_14 + x2,5_19 + x2,5_25 + x2,5_26
   + x2,5_30 + x2,5_31 + x2,5_43 + x3,4_4 + x3,4_5 + x3,4_14 + x3,4_19
   + x3,4_25 + x3,4_26 + x3,4_30 + x3,4_31 + x3,4_43 + x3,5_4 + x3,5_5
   + x3,5_14 + x3,5_19 + x3,5_25 + x3,5_26 + x3,5_30 + x3,5_31 + x3,5_43
   + x4,5_4 + x4,5_5 + x4,5_14 + x4,5_19 + x4,5_25 + x4,5_26 + x4,5_30
   + x4,5_31 + x4,5_43
Subject To
 R0: x0,1_4 + x0,2_4 + x0,3_4 + x0,4_4 + x0,5_4 + x1,2_4 + x1,3_4 + x1,4_4
   + x1,5_4 + x2,3_4 + x2,4_4 + x2,5_4 + x3,4_4 + x3,5_4 + x4,5_4 <= 1
 R1: x0,1_5 + x0,2_5 + x0,3_5 + x0,4_5 + x0,5_5 + x1,2_5 + x1,3_5 + x1,4_5
   + x1,5_5 + x2,3_5 + x2,4_5 + x2,5_5 + x3,4_5 + x3,5_5 + x4,5_5 <= 1
 R2: x0,1_14 + x0,2_14 + x0,3_14 + x0,4_14 + x0,5_14 + x1,2_14 + x1,3_14
   + x1,4_14 + x1,5_14 + x2,3_14 + x2,4_14 + x2,5_14 + x3,4_14 + x3,5_14
   + x4,5_14 <= 1
 R3: x0,1_19 + x0,2_19 + x0,3_19 + x0,4_19 + x0,5_19 + x1,2_19 + x1,3_19
   + x1,4_19 + x1,5_19 + x2,3_19 + x2,4_19 + x2,5_19 + x3,4_19 + x3,5_19
   + x4,5_19 <= 1
 R4: x0,1_25 + x0,2_25 + x0,3_25 + x0,4_25 + x0,5_25 + x1,2_25 + x1,3_25
   + x1,4_25 + x1,5_25 + x2,3_25 + x2,4_25 + x2,5_25 + x3,4_25 + x3,5_25
   + x4,5_25 <= 1
 R5: x0,1_26 + x0,2_26 + x0,3_26 + x0,4_26 + x0,5_26 + x1,2_26 + x1,3_26
   + x1,4_26 + x1,5_26 + x2,3_26 + x2,4_26 + x2,5_26 + x3,4_26 + x3,5_26
   + x4,5_26 <= 1
 R6: x0,1_30 + x0,2_30 + x0,3_30 + x0,4_30 + x0,5_30 + x1,2_30 + x1,3_30
   + x1,4_30 + x1,5_30 + x2,3_30 + x2,4_30 + x2,5_30 + x3,4_30 + x3,5_30
   + x4,5_30 <= 1
 R7: x0,1_31 + x0,2_31 + x0,3_31 + x0,4_31 + x0,5_31 + x1,2_31 + x1,3_31
   + x1,4_31 + x1,5_31 + x2,3_31 + x2,4_31 + x2,5_31 + x3,4_31 + x3,5_31
   + x4,5_31 <= 1
 R8: x0,1_43 + x0,2_43 + x0,3_43 + x0,4_43 + x0,5_43 + x1,2_43 + x1,3_43
   + x1,4_43 + x1,5_43 + x2,3_43 + x2,4_43 + x2,5_43 + x3,4_43 + x3,5_43
   + x4,5_43 <= 1
 R9: x0,1_4 + x0,1_5 + x0,1_14 + x0,1_19 + x0,1_25 + x0,1_26 + x0,1_30
   + x0,1_31 + x0,1_43 <= 1
 R10: x0,2_4 + x0,2_5 + x0,2_14 + x0,2_19 + x0,2_25 + x0,2_26 + x0,2_30
   + x0,2_31 + x0,2_43 <= 1
 R11: x0,3_4 + x0,3_5 + x0,3_14 + x0,3_19 + x0,3_25 + x0,3_26 + x0,3_30
   + x0,3_31 + x0,3_43 <= 1
 R12: x0,4_4 + x0,4_5 + x0,4_14 + x0,4_19 + x0,4_25 + x0,4_26 + x0,4_30
   + x0,4_31 + x0,4_43 <= 1
 R13: x0,5_4 + x0,5_5 + x0,5_14 + x0,5_19 + x0,5_25 + x0,5_26 + x0,5_30
   + x0,5_31 + x0,5_43 <= 1
 R14: x1,2_4 + x1,2_5 + x1,2_14 + x1,2_19 + x1,2_25 + x1,2_26 + x1,2_30
   + x1,2_31 + x1,2_43 <= 1
 R15: x1,3_4 + x1,3_5 + x1,3_14 + x1,3_19 + x1,3_25 + x1,3_26 + x1,3_30
   + x1,3_31 + x1,3_43 <= 1
 R16: x1,4_4 + x1,4_5 + x1,4_14 + x1,4_19 + x1,4_25 + x1,4_26 + x1,4_30
   + x1,4_31 + x1,4_43 <= 1
 R17: x1,5_4 + x1,5_5 + x1,5_14 + x1,5_19 + x1,5_25 + x1,5_26 + x1,5_30
   + x1,5_31 + x1,5_43 <= 1
 R18: x2,3_4 + x2,3_5 + x2,3_14 + x2,3_19 + x2,3_25 + x2,3_26 + x2,3_30
   + x2,3_31 + x2,3_43 <= 1
 R19: x2,4_4 + x2,4_5 + x2,4_14 + x2,4_19 + x2,4_25 + x2,4_26 + x2,4_30
   + x2,4_31 + x2,4_43 <= 1
 R20: x2,5_4 + x2,5_5 + x2,5_14 + x2,5_19 + x2,5_25 + x2,5_26 + x2,5_30
   + x2,5_31 + x2,5_43 <= 1
 R21: x3,4_4 + x3,4_5 + x3,4_14 + x3,4_19 + x3,4_25 + x3,4_26 + x3,4_30
   + x3,4_31 + x3,4_43 <= 1
 R22: x3,5_4 + x3,5_5 + x3,5_14 + x3,5_19 + x3,5_25 + x3,5_26 + x3,5_30
   + x3,5_31 + x3,5_43 <= 1
 R23: x4,5_4 + x4,5_5 + x4,5_14 + x4,5_19 + x4,5_25 + x4,5_26 + x4,5_30
   + x4,5_31 + x4,5_43 <= 1
 R24: p0 - p1 <= -1
 R25: - 4 x0,1_4 - p0 + p1 >= 0
 R26: 197 x0,1_4 - p0 + p1 <= 201
 R27: - 5 x0,1_5 - p0 + p1 >= 0
 R28: 197 x0,1_5 - p0 + p1 <= 202
 R29: - 14 x0,1_14 - p0 + p1 >= 0
 R30: 197 x0,1_14 - p0 + p1 <= 211
 R31: - 19 x0,1_19 - p0 + p1 >= 0
 R32: 197 x0,1_19 - p0 + p1 <= 216
 R33: - 25 x0,1_25 - p0 + p1 >= 0
 R34: 197 x0,1_25 - p0 + p1 <= 222
 R35: - 26 x0,1_26 - p0 + p1 >= 0
 R36: 197 x0,1_26 - p0 + p1 <= 223
 R37: - 30 x0,1_30 - p0 + p1 >= 0
 R38: 197 x0,1_30 - p0 + p1 <= 227
 R39: - 31 x0,1_31 - p0 + p1 >= 0
 R40: 197 x0,1_31 - p0 + p1 <= 228
 R41: - 43 x0,1_43 - p0 + p1 >= 0
 R42: 197 x0,1_43 - p0 + p1 <= 240
 R43: p0 - p2 <= -1
 R44: - 4 x0,2_4 - p0 + p2 >= 0
 R45: 197 x0,2_4 - p0 + p2 <= 201
 R46: - 5 x0,2_5 - p0 + p2 >= 0
 R47: 197 x0,2_5 - p0 + p2 <= 202
 R48: - 14 x0,2_14 - p0 + p2 >= 0
 R49: 197 x0,2_14 - p0 + p2 <= 211
 R50: - 19 x0,2_19 - p0 + p2 >= 0
 R51: 197 x0,2_19 - p0 + p2 <= 216
 R52: - 25 x0,2_25 - p0 + p2 >= 0
 R53: 197 x0,2_25 - p0 + p2 <= 222
 R54: - 26 x0,2_26 - p0 + p2 >= 0
 R55: 197 x0,2_26 - p0 + p2 <= 223
 R56: - 30 x0,2_30 - p0 + p2 >= 0
 R57: 197 x0,2_30 - p0 + p2 <= 227
 R58: - 31 x0,2_31 - p0 + p2 >= 0
 R59: 197 x0,2_31 - p0 + p2 <= 228
 R60: - 43 x0,2_43 - p0 + p2 >= 0
 R61: 197 x0,2_43 - p0 + p2 <= 240
 R62: p0 - p3 <= -1
 R63: - 4 x0,3_4 - p0 + p3 >= 0
 R64: 197 x0,3_4 - p0 + p3 <= 201
 R65: - 5 x0,3_5 - p0 + p3 >= 0
 R66: 197 x0,3_5 - p0 + p3 <= 202
 R67: - 14 x0,3_14 - p0 + p3 >= 0
 R68: 197 x0,3_14 - p0 + p3 <= 211
 R69: - 19 x0,3_19 - p0 + p3 >= 0
 R70: 197 x0,3_19 - p0 + p3 <= 216
 R71: - 25 x0,3_25 - p0 + p3 >= 0
 R72: 197 x0,3_25 - p0 + p3 <= 222
 R73: - 26 x0,3_26 - p0 + p3 >= 0
 R74: 197 x0,3_26 - p0 + p3 <= 223
 R75: - 30 x0,3_30 - p0 + p3 >= 0
 R76: 197 x0,3_30 - p0 + p3 <= 227
 R77: - 31 x0,3_31 - p0 + p3 >= 0
 R78: 197 x0,3_31 - p0 + p3 <= 228
 R79: - 43 x0,3_43 - p0 + p3 >= 0
 R80: 197 x0,3_43 - p0 + p3 <= 240
 R81: p0 - p4 <= -1
 R82: - 4 x0,4_4 - p0 + p4 >= 0
 R83: 197 x0,4_4 - p0 + p4 <= 201
 R84: - 5 x0,4_5 - p0 + p4 >= 0
 R85: 197 x0,4_5 - p0 + p4 <= 202
 R86: - 14 x0,4_14 - p0 + p4 >= 0
 R87: 197 x0,4_14 - p0 + p4 <= 211
 R88: - 19 x0,4_19 - p0 + p4 >= 0
 R89: 197 x0,4_19 - p0 + p4 <= 216
 R90: - 25 x0,4_25 - p0 + p4 >= 0
 R91: 197 x0,4_25 - p0 + p4 <= 222
 R92: - 26 x0,4_26 - p0 + p4 >= 0
 R93: 197 x0,4_26 - p0 + p4 <= 223
 R94: - 30 x0,4_30 - p0 + p4 >= 0
 R95: 197 x0,4_30 - p0 + p4 <= 227
 R96: - 31 x0,4_31 - p0 + p4 >= 0
 R97: 197 x0,4_31 - p0 + p4 <= 228
 R98: - 43 x0,4_43 - p0 + p4 >= 0
 R99: 197 x0,4_43 - p0 + p4 <= 240
 R100: p0 - p5 <= -1
 R101: - 4 x0,5_4 - p0 + p5 >= 0
 R102: 197 x0,5_4 - p0 + p5 <= 201
 R103: - 5 x0,5_5 - p0 + p5 >= 0
 R104: 197 x0,5_5 - p0 + p5 <= 202
 R105: - 14 x0,5_14 - p0 + p5 >= 0
 R106: 197 x0,5_14 - p0 + p5 <= 211
 R107: - 19 x0,5_19 - p0 + p5 >= 0
 R108: 197 x0,5_19 - p0 + p5 <= 216
 R109: - 25 x0,5_25 - p0 + p5 >= 0
 R110: 197 x0,5_25 - p0 + p5 <= 222
 R111: - 26 x0,5_26 - p0 + p5 >= 0
 R112: 197 x0,5_26 - p0 + p5 <= 223
 R113: - 30 x0,5_30 - p0 + p5 >= 0
 R114: 197 x0,5_30 - p0 + p5 <= 227
 R115: - 31 x0,5_31 - p0 + p5 >= 0
 R116: 197 x0,5_31 - p0 + p5 <= 228
 R117: - 43 x0,5_43 - p0 + p5 >= 0
 R118: 197 x0,5_43 - p0 + p5 <= 240
 R119: p1 - p2 <= -1
 R120: - 4 x1,2_4 - p1 + p2 >= 0
 R121: 197 x1,2_4 - p1 + p2 <= 201
 R122: - 5 x1,2_5 - p1 + p2 >= 0
 R123: 197 x1,2_5 - p1 + p2 <= 202
 R124: - 14 x1,2_14 - p1 + p2 >= 0
 R125: 197 x1,2_14 - p1 + p2 <= 211
 R126: - 19 x1,2_19 - p1 + p2 >= 0
 R127: 197 x1,2_19 - p1 + p2 <= 216
 R128: - 25 x1,2_25 - p1 + p2 >= 0
 R129: 197 x1,2_25 - p1 + p2 <= 222
 R130: - 26 x1,2_26 - p1 + p2 >= 0
 R131: 197 x1,2_26 - p1 + p2 <= 223
 R132: - 30 x1,2_30 - p1 + p2 >= 0
 R133: 197 x1,2_30 - p1 + p2 <= 227
 R134: - 31 x1,2_31 - p1 + p2 >= 0
 R135: 197 x1,2_31 - p1 + p2 <= 228
 R136: - 43 x1,2_43 - p1 + p2 >= 0
 R137: 197 x1,2_43 - p1 + p2 <= 240
 R138: p1 - p3 <= -1
 R139: - 4 x1,3_4 - p1 + p3 >= 0
 R140: 197 x1,3_4 - p1 + p3 <= 201
 R141: - 5 x1,3_5 - p1 + p3 >= 0
 R142: 197 x1,3_5 - p1 + p3 <= 202
 R143: - 14 x1,3_14 - p1 + p3 >= 0
 R144: 197 x1,3_14 - p1 + p3 <= 211
 R145: - 19 x1,3_19 - p1 + p3 >= 0
 R146: 197 x1,3_19 - p1 + p3 <= 216
 R147: - 25 x1,3_25 - p1 + p3 >= 0
 R148: 197 x1,3_25 - p1 + p3 <= 222
 R149: - 26 x1,3_26 - p1 + p3 >= 0
 R150: 197 x1,3_26 - p1 + p3 <= 223
 R151: - 30 x1,3_30 - p1 + p3 >= 0
 R152: 197 x1,3_30 - p1 + p3 <= 227
 R153: - 31 x1,3_31 - p1 + p3 >= 0
 R154: 197 x1,3_31 - p1 + p3 <= 228
 R155: - 43 x1,3_43 - p1 + p3 >= 0
 R156: 197 x1,3_43 - p1 + p3 <= 240
 R157: p1 - p4 <= -1
 R158: - 4 x1,4_4 - p1 + p4 >= 0
 R159: 197 x1,4_4 - p1 + p4 <= 201
 R160: - 5 x1,4_5 - p1 + p4 >= 0
 R161: 197 x1,4_5 - p1 + p4 <= 202
 R162: - 14 x1,4_14 - p1 + p4 >= 0
 R163: 197 x1,4_14 - p1 + p4 <= 211
 R164: - 19 x1,4_19 - p1 + p4 >= 0
 R165: 197 x1,4_19 - p1 + p4 <= 216
 R166: - 25 x1,4_25 - p1 + p4 >= 0
 R167: 197 x1,4_25 - p1 + p4 <= 222
 R168: - 26 x1,4_26 - p1 + p4 >= 0
 R169: 197 x1,4_26 - p1 + p4 <= 223
 R170: - 30 x1,4_30 - p1 + p4 >= 0
 R171: 197 x1,4_30 - p1 + p4 <= 227
 R172: - 31 x1,4_31 - p1 + p4 >= 0
 R173: 197 x1,4_31 - p1 + p4 <= 228
 R174: - 43 x1,4_43 - p1 + p4 >= 0
 R175: 197 x1,4_43 - p1 + p4 <= 240
 R176: p1 - p5 <= -1
 R177: - 4 x1,5_4 - p1 + p5 >= 0
 R178: 197 x1,5_4 - p1 + p5 <= 201
 R179: - 5 x1,5_5 - p1 + p5 >= 0
 R180: 197 x1,5_5 - p1 + p5 <= 202
 R181: - 14 x1,5_14 - p1 + p5 >= 0
 R182: 197 x1,5_14 - p1 + p5 <= 211
 R183: - 19 x1,5_19 - p1 + p5 >= 0
 R184: 197 x1,5_19 - p1 + p5 <= 216
 R185: - 25 x1,5_25 - p1 + p5 >= 0
 R186: 197 x1,5_25 - p1 + p5 <= 222
 R187: - 26 x1,5_26 - p1 + p5 >= 0
 R188: 197 x1,5_26 - p1 + p5 <= 223
 R189: - 30 x1,5_30 - p1 + p5 >= 0
 R190: 197 x1,5_30 - p1 + p5 <= 227
 R191: - 31 x1,5_31 - p1 + p5 >= 0
 R192: 197 x1,5_31 - p1 + p5 <= 228
 R193: - 43 x1,5_43 - p1 + p5 >= 0
 R194: 197 x1,5_43 - p1 + p5 <= 240
 R195: p2 - p3 <= -1
 R196: - 4 x2,3_4 - p2 + p3 >= 0
 R197: 197 x2,3_4 - p2 + p3 <= 201
 R198: - 5 x2,3_5 - p2 + p3 >= 0
 R199: 197 x2,3_5 - p2 + p3 <= 202
 R200: - 14 x2,3_14 - p2 + p3 >= 0
 R201: 197 x2,3_14 - p2 + p3 <= 211
 R202: - 19 x2,3_19 - p2 + p3 >= 0
 R203: 197 x2,3_19 - p2 + p3 <= 216
 R204: - 25 x2,3_25 - p2 + p3 >= 0
 R205: 197 x2,3_25 - p2 + p3 <= 222
 R206: - 26 x2,3_26 - p2 + p3 >= 0
 R207: 197 x2,3_26 - p2 + p3 <= 223
 R208: - 30 x2,3_30 - p2 + p3 >= 0
 R209: 197 x2,3_30 - p2 + p3 <= 227
 R210: - 31 x2,3_31 - p2 + p3 >= 0
 R211: 197 x2,3_31 - p2 + p3 <= 228
 R212: - 43 x2,3_43 - p2 + p3 >= 0
 R213: 197 x2,3_43 - p2 + p3 <= 240
 R214: p2 - p4 <= -1
 R215: - 4 x2,4_4 - p2 + p4 >= 0
 R216: 197 x2,4_4 - p2 + p4 <= 201
 R217: - 5 x2,4_5 - p2 + p4 >= 0
 R218: 197 x2,4_5 - p2 + p4 <= 202
 R219: - 14 x2,4_14 - p2 + p4 >= 0
 R220: 197 x2,4_14 - p2 + p4 <= 211
 R221: - 19 x2,4_19 - p2 + p4 >= 0
 R222: 197 x2,4_19 - p2 + p4 <= 216
 R223: - 25 x2,4_25 - p2 + p4 >= 0
 R224: 197 x2,4_25 - p2 + p4 <= 222
 R225: - 26 x2,4_26 - p2 + p4 >= 0
 R226: 197 x2,4_26 - p2 + p4 <= 223
 R227: - 30 x2,4_30 - p2 + p4 >= 0
 R228: 197 x2,4_30 - p2 + p4 <= 227
 R229: - 31 x2,4_31 - p2 + p4 >= 0
 R230: 197 x2,4_31 - p2 + p4 <= 228
 R231: - 43 x2,4_43 - p2 + p4 >= 0
 R232: 197 x2,4_43 - p2 + p4 <= 240
 R233: p2 - p5 <= -1
 R234: - 4 x2,5_4 - p2 + p5 >= 0
 R235: 197 x2,5_4 - p2 + p5 <= 201
 R236: - 5 x2,5_5 - p2 + p5 >= 0
 R237: 197 x2,5_5 - p2 + p5 <= 202
 R238: - 14 x2,5_14 - p2 + p5 >= 0
 R239: 197 x2,5_14 - p2 + p5 <= 211
 R240: - 19 x2,5_19 - p2 + p5 >= 0
 R241: 197 x2,5_19 - p2 + p5 <= 216
 R242: - 25 x2,5_25 - p2 + p5 >= 0
 R243: 197 x2,5_25 - p2 + p5 <= 222
 R244: - 26 x2,5_26 - p2 + p5 >= 0
 R245: 197 x2,5_26 - p2 + p5 <= 223
 R246: - 30 x2,5_30 - p2 + p5 >= 0
 R247: 197 x2,5_30 - p2 + p5 <= 227
 R248: - 31 x2,5_31 - p2 + p5 >= 0
 R249: 197 x2,5_31 - p2 + p5 <= 228
 R250: - 43 x2,5_43 - p2 + p5 >= 0
 R251: 197 x2,5_43 - p2 + p5 <= 240
 R252: p3 - p4 <= -1
 R253: - 4 x3,4_4 - p3 + p4 >= 0
 R254: 197 x3,4_4 - p3 + p4 <= 201
 R255: - 5 x3,4_5 - p3 + p4 >= 0
 R256: 197 x3,4_5 - p3 + p4 <= 202
 R257: - 14 x3,4_14 - p3 + p4 >= 0
 R258: 197 x3,4_14 - p3 + p4 <= 211
 R259: - 19 x3,4_19 - p3 + p4 >= 0
 R260: 197 x3,4_19 - p3 + p4 <= 216
 R261: - 25 x3,4_25 - p3 + p4 >= 0
 R262: 197 x3,4_25 - p3 + p4 <= 222
 R263: - 26 x3,4_26 - p3 + p4 >= 0
 R264: 197 x3,4_26 - p3 + p4 <= 223
 R265: - 30 x3,4_30 - p3 + p4 >= 0
 R266: 197 x3,4_30 - p3 + p4 <= 227
 R267: - 31 x3,4_31 - p3 + p4 >= 0
 R268: 197 x3,4_31 - p3 + p4 <= 228
 R269: - 43 x3,4_43 - p3 + p4 >= 0
 R270: 197 x3,4_43 - p3 + p4 <= 240
 R271: p3 - p5 <= -1
 R272: - 4 x3,5_4 - p3 + p5 >= 0
 R273: 197 x3,5_4 - p3 + p5 <= 201
 R274: - 5 x3,5_5 - p3 + p5 >= 0
 R275: 197 x3,5_5 - p3 + p5 <= 202
 R276: - 14 x3,5_14 - p3 + p5 >= 0
 R277: 197 x3,5_14 - p3 + p5 <= 211
 R278: - 19 x3,5_19 - p3 + p5 >= 0
 R279: 197 x3,5_19 - p3 + p5 <= 216
 R280: - 25 x3,5_25 - p3 + p5 >= 0
 R281: 197 x3,5_25 - p3 + p5 <= 222
 R282: - 26 x3,5_26 - p3 + p5 >= 0
 R283: 197 x3,5_26 - p3 + p5 <= 223
 R284: - 30 x3,5_30 - p3 + p5 >= 0
 R285: 197 x3,5_30 - p3 + p5 <= 227
 R286: - 31 x3,5_31 - p3 + p5 >= 0
 R287: 197 x3,5_31 - p3 + p5 <= 228
 R288: - 43 x3,5_43 - p3 + p5 >= 0
 R289: 197 x3,5_43 - p3 + p5 <= 240
 R290: p4 - p5 <= -1
 R291: - 4 x4,5_4 - p4 + p5 >= 0
 R292: 197 x4,5_4 - p4 + p5 <= 201
 R293: - 5 x4,5_5 - p4 + p5 >= 0
 R294: 197 x4,5_5 - p4 + p5 <= 202
 R295: - 14 x4,5_14 - p4 + p5 >= 0
 R296: 197 x4,5_14 - p4 + p5 <= 211
 R297: - 19 x4,5_19 - p4 + p5 >= 0
 R298: 197 x4,5_19 - p4 + p5 <= 216
 R299: - 25 x4,5_25 - p4 + p5 >= 0
 R300: 197 x4,5_25 - p4 + p5 <= 222
 R301: - 26 x4,5_26 - p4 + p5 >= 0
 R302: 197 x4,5_26 - p4 + p5 <= 223
 R303: - 30 x4,5_30 - p4 + p5 >= 0
 R304: 197 x4,5_30 - p4 + p5 <= 227
 R305: - 31 x4,5_31 - p4 + p5 >= 0
 R306: 197 x4,5_31 - p4 + p5 <= 228
 R307: - 43 x4,5_43 - p4 + p5 >= 0
 R308: 197 x4,5_43 - p4 + p5 <= 240
Bounds
Binaries
 x0,1_4 x0,1_5 x0,1_14 x0,1_19 x0,1_25 x0,1_26 x0,1_30 x0,1_31 x0,1_43
 x0,2_4 x0,2_5 x0,2_14 x0,2_19 x0,2_25 x0,2_26 x0,2_30 x0,2_31 x0,2_43
 x0,3_4 x0,3_5 x0,3_14 x0,3_19 x0,3_25 x0,3_26 x0,3_30 x0,3_31 x0,3_43
 x0,4_4 x0,4_5 x0,4_14 x0,4_19 x0,4_25 x0,4_26 x0,4_30 x0,4_31 x0,4_43
 x0,5_4 x0,5_5 x0,5_14 x0,5_19 x0,5_25 x0,5_26 x0,5_30 x0,5_31 x0,5_43
 x1,2_4 x1,2_5 x1,2_14 x1,2_19 x1,2_25 x1,2_26 x1,2_30 x1,2_31 x1,2_43
 x1,3_4 x1,3_5 x1,3_14 x1,3_19 x1,3_25 x1,3_26 x1,3_30 x1,3_31 x1,3_43
 x1,4_4 x1,4_5 x1,4_14 x1,4_19 x1,4_25 x1,4_26 x1,4_30 x1,4_31 x1,4_43
 x1,5_4 x1,5_5 x1,5_14 x1,5_19 x1,5_25 x1,5_26 x1,5_30 x1,5_31 x1,5_43
 x2,3_4 x2,3_5 x2,3_14 x2,3_19 x2,3_25 x2,3_26 x2,3_30 x2,3_31 x2,3_43
 x2,4_4 x2,4_5 x2,4_14 x2,4_19 x2,4_25 x2,4_26 x2,4_30 x2,4_31 x2,4_43
 x2,5_4 x2,5_5 x2,5_14 x2,5_19 x2,5_25 x2,5_26 x2,5_30 x2,5_31 x2,5_43
 x3,4_4 x3,4_5 x3,4_14 x3,4_19 x3,4_25 x3,4_26 x3,4_30 x3,4_31 x3,4_43
 x3,5_4 x3,5_5 x3,5_14 x3,5_19 x3,5_25 x3,5_26 x3,5_30 x3,5_31 x3,5_43
 x4,5_4 x4,5_5 x4,5_14 x4,5_19 x4,5_25 x4,5_26 x4,5_30 x4,5_31 x4,5_43
Generals
 p0 p1 p2 p3 p4 p5
End
