logs/miss/max/miss-06-15-1.sol
# Objective value = 9
x0,1_4 0
x0,1_5 0
x0,1_14 0
x0,1_19 0
x0,1_25 0
x0,1_26 0
x0,1_30 0
x0,1_31 0
x0,1_43 0
x0,2_4 0
x0,2_5 1
x0,2_14 0
x0,2_19 0
x0,2_25 0
x0,2_26 0
x0,2_30 0
x0,2_31 0
x0,2_43 0
x0,3_4 0
x0,3_5 0
x0,3_14 0
x0,3_19 1
x0,3_25 0
x0,3_26 0
x0,3_30 0
x0,3_31 0
x0,3_43 0
x0,4_4 0
x0,4_5 0
x0,4_14 0
x0,4_19 0
x0,4_25 0
x0,4_26 0
x0,4_30 0
x0,4_31 1
x0,4_43 0
x0,5_4 0
x0,5_5 0
x0,5_14 0
x0,5_19 0
x0,5_25 0
x0,5_26 0
x0,5_30 0
x0,5_31 0
x0,5_43 0
x1,2_4 1
x1,2_5 0
x1,2_14 0
x1,2_19 0
x1,2_25 0
x1,2_26 0
x1,2_30 0
x1,2_31 0
x1,2_43 0
x1,3_4 0
x1,3_5 0
x1,3_14 0
x1,3_19 0
x1,3_25 0
x1,3_26 0
x1,3_30 0
x1,3_31 0
x1,3_43 0
x1,4_4 0
x1,4_5 0
x1,4_14 0
x1,4_19 0
x1,4_25 0
x1,4_26 0
x1,4_30 1
x1,4_31 0
x1,4_43 0
x1,5_4 0
x1,5_5 0
x1,5_14 0
x1,5_19 0
x1,5_25 0
x1,5_26 0
x1,5_30 0
x1,5_31 0
x1,5_43 1
x2,3_4 0
x2,3_5 0
x2,3_14 1
x2,3_19 0
x2,3_25 0
x2,3_26 0
x2,3_30 0
x2,3_31 0
x2,3_43 0
x2,4_4 0
x2,4_5 0
x2,4_14 0
x2,4_19 0
x2,4_25 0
x2,4_26 1
x2,4_30 0
x2,4_31 0
x2,4_43 0
x2,5_4 0
x2,5_5 0
x2,5_14 0
x2,5_19 0
x2,5_25 0
x2,5_26 0
x2,5_30 0
x2,5_31 0
x2,5_43 0
x3,4_4 0
x3,4_5 0
x3,4_14 0
x3,4_19 0
x3,4_25 0
x3,4_26 0
x3,4_30 0
x3,4_31 0
x3,4_43 0
x3,5_4 0
x3,5_5 0
x3,5_14 0
x3,5_19 0
x3,5_25 1
x3,5_26 0
x3,5_30 0
x3,5_31 0
x3,5_43 0
x4,5_4 0
x4,5_5 0
x4,5_14 0
x4,5_19 0
x4,5_25 0
x4,5_26 0
x4,5_30 0
x4,5_31 0
x4,5_43 0
p0 0
p1 1
p2 5
p3 19
p4 31
p5 44
